out/bwp_8_11_1_lp.out
4
0 0    1 1
2 0    3 1
4 0    5 1
6 0    7 1
0 2    1 3
5 2    5 3
6 2    7 2
2 3    3 3
2 2    2 2
4 2    4 2
6 3    6 3
